0000000000000000
0000000000000000
0010000000001000
0011100000001100
0001110000001100
0000111000111100
0001111000111100
0000111000111000
0011111111110000
0111111111100000
0111100111110000
0111100011111000
0111100001111100
0111100001111100
0111100000111110
0000000000000000
